c File: flat50_3_0.col
c
c SOURCE: Joseph Culberson (joe@cs.ualberta.ca)
c DESCRIPTION: Quasi-random coloring problem
c              generated with flatness = 0
c                             probability = 0.139
c                             known coloring = 3
c                             random seed = 1457
c              Creation Date:  Tue Jun  9 12:09:49 1998
c Maximum degree = 8 Minimum degree = 2
c p edge 50 115
c cnf created by edge2cnf
p cnf 150 545
-1 -2 0
-1 -3 0
-2 -3 0
1 2 3 0
-4 -5 0
-4 -6 0
-5 -6 0
4 5 6 0
-7 -8 0
-7 -9 0
-8 -9 0
7 8 9 0
-10 -11 0
-10 -12 0
-11 -12 0
10 11 12 0
-13 -14 0
-13 -15 0
-14 -15 0
13 14 15 0
-16 -17 0
-16 -18 0
-17 -18 0
16 17 18 0
-19 -20 0
-19 -21 0
-20 -21 0
19 20 21 0
-22 -23 0
-22 -24 0
-23 -24 0
22 23 24 0
-25 -26 0
-25 -27 0
-26 -27 0
25 26 27 0
-28 -29 0
-28 -30 0
-29 -30 0
28 29 30 0
-31 -32 0
-31 -33 0
-32 -33 0
31 32 33 0
-34 -35 0
-34 -36 0
-35 -36 0
34 35 36 0
-37 -38 0
-37 -39 0
-38 -39 0
37 38 39 0
-40 -41 0
-40 -42 0
-41 -42 0
40 41 42 0
-43 -44 0
-43 -45 0
-44 -45 0
43 44 45 0
-46 -47 0
-46 -48 0
-47 -48 0
46 47 48 0
-49 -50 0
-49 -51 0
-50 -51 0
49 50 51 0
-52 -53 0
-52 -54 0
-53 -54 0
52 53 54 0
-55 -56 0
-55 -57 0
-56 -57 0
55 56 57 0
-58 -59 0
-58 -60 0
-59 -60 0
58 59 60 0
-61 -62 0
-61 -63 0
-62 -63 0
61 62 63 0
-64 -65 0
-64 -66 0
-65 -66 0
64 65 66 0
-67 -68 0
-67 -69 0
-68 -69 0
67 68 69 0
-70 -71 0
-70 -72 0
-71 -72 0
70 71 72 0
-73 -74 0
-73 -75 0
-74 -75 0
73 74 75 0
-76 -77 0
-76 -78 0
-77 -78 0
76 77 78 0
-79 -80 0
-79 -81 0
-80 -81 0
79 80 81 0
-82 -83 0
-82 -84 0
-83 -84 0
82 83 84 0
-85 -86 0
-85 -87 0
-86 -87 0
85 86 87 0
-88 -89 0
-88 -90 0
-89 -90 0
88 89 90 0
-91 -92 0
-91 -93 0
-92 -93 0
91 92 93 0
-94 -95 0
-94 -96 0
-95 -96 0
94 95 96 0
-97 -98 0
-97 -99 0
-98 -99 0
97 98 99 0
-100 -101 0
-100 -102 0
-101 -102 0
100 101 102 0
-103 -104 0
-103 -105 0
-104 -105 0
103 104 105 0
-106 -107 0
-106 -108 0
-107 -108 0
106 107 108 0
-109 -110 0
-109 -111 0
-110 -111 0
109 110 111 0
-112 -113 0
-112 -114 0
-113 -114 0
112 113 114 0
-115 -116 0
-115 -117 0
-116 -117 0
115 116 117 0
-118 -119 0
-118 -120 0
-119 -120 0
118 119 120 0
-121 -122 0
-121 -123 0
-122 -123 0
121 122 123 0
-124 -125 0
-124 -126 0
-125 -126 0
124 125 126 0
-127 -128 0
-127 -129 0
-128 -129 0
127 128 129 0
-130 -131 0
-130 -132 0
-131 -132 0
130 131 132 0
-133 -134 0
-133 -135 0
-134 -135 0
133 134 135 0
-136 -137 0
-136 -138 0
-137 -138 0
136 137 138 0
-139 -140 0
-139 -141 0
-140 -141 0
139 140 141 0
-142 -143 0
-142 -144 0
-143 -144 0
142 143 144 0
-145 -146 0
-145 -147 0
-146 -147 0
145 146 147 0
-148 -149 0
-148 -150 0
-149 -150 0
148 149 150 0
-70 -1 0
-71 -2 0
-72 -3 0
-76 -1 0
-77 -2 0
-78 -3 0
-94 -1 0
-95 -2 0
-96 -3 0
-100 -1 0
-101 -2 0
-102 -3 0
-106 -1 0
-107 -2 0
-108 -3 0
-112 -1 0
-113 -2 0
-114 -3 0
-127 -1 0
-128 -2 0
-129 -3 0
-85 -4 0
-86 -5 0
-87 -6 0
-94 -4 0
-95 -5 0
-96 -6 0
-109 -4 0
-110 -5 0
-111 -6 0
-115 -4 0
-116 -5 0
-117 -6 0
-139 -4 0
-140 -5 0
-141 -6 0
-142 -4 0
-143 -5 0
-144 -6 0
-61 -7 0
-62 -8 0
-63 -9 0
-64 -7 0
-65 -8 0
-66 -9 0
-100 -7 0
-101 -8 0
-102 -9 0
-106 -7 0
-107 -8 0
-108 -9 0
-112 -7 0
-113 -8 0
-114 -9 0
-115 -7 0
-116 -8 0
-117 -9 0
-67 -10 0
-68 -11 0
-69 -12 0
-73 -10 0
-74 -11 0
-75 -12 0
-85 -10 0
-86 -11 0
-87 -12 0
-115 -10 0
-116 -11 0
-117 -12 0
-127 -10 0
-128 -11 0
-129 -12 0
-148 -10 0
-149 -11 0
-150 -12 0
-100 -13 0
-101 -14 0
-102 -15 0
-139 -13 0
-140 -14 0
-141 -15 0
-142 -13 0
-143 -14 0
-144 -15 0
-58 -16 0
-59 -17 0
-60 -18 0
-85 -16 0
-86 -17 0
-87 -18 0
-112 -16 0
-113 -17 0
-114 -18 0
-121 -16 0
-122 -17 0
-123 -18 0
-52 -19 0
-53 -20 0
-54 -21 0
-85 -19 0
-86 -20 0
-87 -21 0
-139 -19 0
-140 -20 0
-141 -21 0
-52 -22 0
-53 -23 0
-54 -24 0
-58 -22 0
-59 -23 0
-60 -24 0
-73 -22 0
-74 -23 0
-75 -24 0
-130 -22 0
-131 -23 0
-132 -24 0
-58 -25 0
-59 -26 0
-60 -27 0
-76 -25 0
-77 -26 0
-78 -27 0
-79 -25 0
-80 -26 0
-81 -27 0
-91 -25 0
-92 -26 0
-93 -27 0
-118 -25 0
-119 -26 0
-120 -27 0
-79 -28 0
-80 -29 0
-81 -30 0
-106 -28 0
-107 -29 0
-108 -30 0
-124 -28 0
-125 -29 0
-126 -30 0
-133 -28 0
-134 -29 0
-135 -30 0
-139 -28 0
-140 -29 0
-141 -30 0
-70 -31 0
-71 -32 0
-72 -33 0
-130 -31 0
-131 -32 0
-132 -33 0
-136 -31 0
-137 -32 0
-138 -33 0
-97 -34 0
-98 -35 0
-99 -36 0
-127 -34 0
-128 -35 0
-129 -36 0
-148 -34 0
-149 -35 0
-150 -36 0
-52 -37 0
-53 -38 0
-54 -39 0
-55 -37 0
-56 -38 0
-57 -39 0
-94 -37 0
-95 -38 0
-96 -39 0
-145 -37 0
-146 -38 0
-147 -39 0
-82 -40 0
-83 -41 0
-84 -42 0
-94 -40 0
-95 -41 0
-96 -42 0
-124 -40 0
-125 -41 0
-126 -42 0
-103 -43 0
-104 -44 0
-105 -45 0
-127 -43 0
-128 -44 0
-129 -45 0
-133 -43 0
-134 -44 0
-135 -45 0
-142 -43 0
-143 -44 0
-144 -45 0
-58 -46 0
-59 -47 0
-60 -48 0
-61 -46 0
-62 -47 0
-63 -48 0
-79 -46 0
-80 -47 0
-81 -48 0
-88 -46 0
-89 -47 0
-90 -48 0
-145 -46 0
-146 -47 0
-147 -48 0
-61 -49 0
-62 -50 0
-63 -51 0
-64 -49 0
-65 -50 0
-66 -51 0
-88 -49 0
-89 -50 0
-90 -51 0
-100 -49 0
-101 -50 0
-102 -51 0
-106 -49 0
-107 -50 0
-108 -51 0
-133 -49 0
-134 -50 0
-135 -51 0
-142 -49 0
-143 -50 0
-144 -51 0
-145 -52 0
-146 -53 0
-147 -54 0
-136 -55 0
-137 -56 0
-138 -57 0
-139 -55 0
-140 -56 0
-141 -57 0
-145 -55 0
-146 -56 0
-147 -57 0
-103 -58 0
-104 -59 0
-105 -60 0
-106 -58 0
-107 -59 0
-108 -60 0
-133 -58 0
-134 -59 0
-135 -60 0
-139 -58 0
-140 -59 0
-141 -60 0
-127 -61 0
-128 -62 0
-129 -63 0
-115 -64 0
-116 -65 0
-117 -66 0
-118 -64 0
-119 -65 0
-120 -66 0
-148 -64 0
-149 -65 0
-150 -66 0
-112 -67 0
-113 -68 0
-114 -69 0
-121 -67 0
-122 -68 0
-123 -69 0
-133 -67 0
-134 -68 0
-135 -69 0
-145 -67 0
-146 -68 0
-147 -69 0
-112 -70 0
-113 -71 0
-114 -72 0
-136 -70 0
-137 -71 0
-138 -72 0
-139 -73 0
-140 -74 0
-141 -75 0
-109 -76 0
-110 -77 0
-111 -78 0
-130 -76 0
-131 -77 0
-132 -78 0
-145 -76 0
-146 -77 0
-147 -78 0
-103 -79 0
-104 -80 0
-105 -81 0
-121 -79 0
-122 -80 0
-123 -81 0
-130 -79 0
-131 -80 0
-132 -81 0
-133 -82 0
-134 -83 0
-135 -84 0
-139 -82 0
-140 -83 0
-141 -84 0
-106 -85 0
-107 -86 0
-108 -87 0
-106 -88 0
-107 -89 0
-108 -90 0
-103 -91 0
-104 -92 0
-105 -93 0
-109 -91 0
-110 -92 0
-111 -93 0
-109 -94 0
-110 -95 0
-111 -96 0
-136 -94 0
-137 -95 0
-138 -96 0
-118 -97 0
-119 -98 0
-120 -99 0
-130 -97 0
-131 -98 0
-132 -99 0
-133 -97 0
-134 -98 0
-135 -99 0
-136 -100 0
-137 -101 0
-138 -102 0
